61
Coordinates from ORCA-job conformer_001 E -1359.238243112178
  C          -5.54705413637984     -1.38388366780110      2.35170739714532
  C          -4.96866991973939     -0.07669426190239      1.80174279763380
  N          -5.24706278627564      0.14567247353834      0.38322758387714
  C          -6.53104438902187      0.76718818175932      0.04192325718523
  C          -6.44875582097336      2.28903474253862     -0.08621322328784
  C          -4.41648285365060     -0.20312296119323     -0.65579857849399
  O          -4.73594399222399     -0.00498789256883     -1.82024586709971
  C          -3.05226587107725     -0.82754751855928     -0.31042321818526
  C          -2.53201417248351     -1.67412307486883     -1.47234414723478
  N          -1.18177429508667     -2.15236421994969     -1.18903010527487
  C          -0.79681695876952     -3.20396726674754     -2.11493444794247
  C          -0.19254974881616     -1.07703965648516     -1.09660176184187
  C           1.11557240239377     -1.59496998770498     -0.42244724350624
  C           2.08806493044871     -0.47183046005685     -0.22188683357615
  C           3.44523730148609     -0.37577817413059     -0.11587960779724
  N           3.81647372586240      0.97690063112348      0.10826107246554
  C           5.11215310798750      1.50455707134693      0.20087616072688
  O           5.30733405488273      2.69915035690927      0.08905118494946
  C           6.24928050857071      0.55461117851663      0.45368103550287
  C           7.46469062566159      0.81383836904479     -0.20243927041576
  C           8.58390074091339      0.01879565126713      0.04537942190907
  C           8.51094293793810     -1.02453032948016      0.97563668231823
  C           7.31471005987896     -1.26794829107424      1.65722092741209
  C           6.18560382420427     -0.48645112369017      1.39544612599754
  C           2.63976238444782      1.75509921043697      0.11139571148365
  C           2.38322211117662      3.12169090253561      0.27794324235908
  C           1.03817365511995      3.51756350721870      0.24080274308483
  C          -0.02324670936391      2.61377146715507      0.03611443187094
  C           0.22974045346120      1.24428208331347     -0.12872505234479
  C          -0.74868774217553      0.16041671194548     -0.37373912354168
  C          -2.03741753195837      0.24601820598972      0.00317301659231
  C           1.57538846762654      0.85818302540242     -0.08210841096667
  H          -5.34838210443496     -1.47028318400112      3.43260656061660
  H          -6.63786824326502     -1.43432694634550      2.20422926203777
  H          -5.10048748534960     -2.25816535316369      1.85145494968615
  H          -5.38649929553177      0.77798937566867      2.36059338707745
  H          -3.88555344391480     -0.04000207659463      1.98069619874752
  H          -7.26219384053251      0.48422552716047      0.81706969475506
  H          -6.87098681969137      0.33580541331880     -0.90995869469950
  H          -5.76007009271138      2.56540015303226     -0.89896958373913
  H          -7.44016842641669      2.71086437325455     -0.31984083330874
  H          -6.09464519152873      2.75892880041281      0.84668886591011
  H          -3.15944029308484     -1.49137769227967      0.56524142995192
  H          -3.18550671855820     -2.54884935177883     -1.61534027638141
  H          -2.59108035326194     -1.07718731824017     -2.40561835997772
  H           0.15488320061428     -3.66929330667061     -1.82129162103450
  H          -1.56072047957548     -3.99692971629561     -2.11028039892907
  H          -0.68927893347963     -2.84525920460881     -3.16498877482408
  H           0.09444037423591     -0.72571229705235     -2.11925108192009
  H           0.82954605345914     -2.03900624587428      0.54826195535130
  H           1.56081564895623     -2.39993988371717     -1.02427884321412
  H           4.21199390036832     -1.13927048558328     -0.20744082210638
  H           7.51641957426153      1.64934370566778     -0.90385419845052
  H           9.52037879137947      0.21833816541983     -0.48195034328852
  H           9.39053120002660     -1.64203364172327      1.17642535055311
  H           7.26006049649278     -2.06694399958794      2.40130850148125
  H           5.26083133615303     -0.67248910471652      1.94590692482387
  H           3.18883106442244      3.84098633239926      0.41121100744659
  H           0.80575800513088      4.57993465141448      0.35466141003483
  H          -1.04520761326037      2.99645911844219     -0.02301177771905
  H          -2.37686467496707      1.13725930821147      0.54095204965462
