64
Coordinates from ORCA-job conformer_001 E -1398.498533516077
  C          -6.93713348603069      2.30645392368011     -0.67835499657244
  C          -7.00875844034683      0.87895170397390     -0.13407609936157
  N          -5.71397650363272      0.37023889390575      0.33072956783215
  C          -5.39407748666970      0.54979914301736      1.74648583239983
  C          -5.95063819032642     -0.55034957821680      2.65519647607553
  C          -4.90950004870381     -0.25265000006925     -0.59438662938652
  O          -5.25979052962752     -0.37884326919211     -1.76000369427891
  C          -3.53840169719214     -0.77178095859365     -0.12462433549404
  C          -3.05207967316702     -1.90933140359781     -1.02291274821606
  N          -1.69944480069714     -2.31220333086914     -0.64891071353860
  C          -1.34368546680409     -3.57533515091411     -1.27241667607286
  C          -0.69766828026047     -1.26586572775878     -0.86114236273979
  C           0.61124301562783     -1.59735315582438     -0.07914238848650
  C           1.59942896474753     -0.47669929760334     -0.20384612852244
  C           2.95899970943324     -0.37395867696028     -0.13625639796399
  N           3.34874159653015      0.98140426306133     -0.29926717866565
  C           4.65299762389935      1.49723968374762     -0.35916293304793
  O           4.86054954046543      2.60409637958254     -0.81769984202812
  C           5.77553716966518      0.65373845058368      0.17012631382491
  C           7.00959020712469      0.72155716194830     -0.49778052845388
  C           8.11602017350163      0.02589420127058     -0.01504632965024
  C           8.04015199471861     -0.73149181850405      1.16694975689257
  C           6.81134695169404     -0.77075108031568      1.84514730494915
  C           5.69211077177326     -0.09364517029353      1.35656598631649
  C           9.25190530970791     -1.44763011327273      1.71041731851760
  C           2.18253909021484      1.74619631009644     -0.50780368087309
  C           1.94458882070551      3.10878890111690     -0.72721437490430
  C           0.60432258499431      3.49886435237947     -0.86297182202925
  C          -0.47083837401967      2.58998764380619     -0.79899816013617
  C          -0.23658597733408      1.22529960327910     -0.57810392666632
  C          -1.23006932285939      0.13030920693529     -0.50067084081524
  C          -2.51041665253632      0.33426998526392     -0.14108983243828
  C           1.10482104430206      0.84693154453977     -0.43652537584651
  H          -6.55313899041985      3.01284566338203      0.07666379769519
  H          -7.93800766757793      2.65281976442680     -0.98454537465700
  H          -6.27853690749743      2.34584428201111     -1.55932527648398
  H          -7.71773727187678      0.82272189040872      0.70834137933076
  H          -7.37180818177819      0.20321824433805     -0.92109922027252
  H          -5.79843109541956      1.52808693552592      2.05790815397060
  H          -4.30631037624892      0.62996311314546      1.87655710472753
  H          -5.71941454514091     -0.33315164310469      3.71097572383815
  H          -5.51529230747408     -1.53123324965066      2.40527984096239
  H          -7.04519728018320     -0.63494407118219      2.56057231499581
  H          -3.62506461865438     -1.16984914296500      0.90154813919071
  H          -3.12992646683558     -1.58750554171584     -2.08184132735312
  H          -3.71539011388161     -2.78115948663288     -0.90929678747390
  H          -1.26258083466262     -3.50736226814319     -2.38224669430470
  H          -2.11067162849162     -4.33051916743399     -1.04014230157863
  H          -0.38616933140915     -3.95760246588565     -0.89047653354000
  H          -0.41657247694485     -1.21134271569308     -1.94244139981692
  H           0.32954836427709     -1.75232552451444      0.97815303884858
  H           1.03997903019895     -2.54427001278947     -0.43744235418533
  H           3.71615725746321     -1.14335498521132     -0.01761398393210
  H           7.08639736104367      1.32954076437434     -1.40180835804168
  H           9.06247265998402      0.07592530221938     -0.56151292035521
  H           6.72874854952480     -1.33879037885587      2.77650655988375
  H           4.75658962289159     -0.12990711077304      1.91892679624385
  H           9.82793895728685     -0.78878384862036      2.38455573015619
  H           8.97035497382708     -2.34007079030114      2.29027499306752
  H           9.93260413012593     -1.76101906645549      0.90389088979891
  H           2.76070068864533      3.82422492860697     -0.80667063329787
  H           0.38618332536477      4.55420046248517     -1.04836128476314
  H          -1.48861550794775      2.95715341957236     -0.95358979799570
  H          -2.83063895708646      1.34451407922837      0.13398249212135
