70
Coordinates from ORCA-job conformer_003 E -1477.009821890477
  C          -7.12799056790093     -0.17446447598782     -2.49623326523925
  C          -6.61463695770791     -0.50998808018999     -1.09286712079970
  N          -6.66033636035783      0.61542461169993     -0.15983511643802
  C          -7.92484569204912      0.85004452642573      0.54554907978805
  C          -7.99533047360160      0.15260676730702      1.90481916245230
  C          -5.62487407076797      1.48515671559499      0.09005337730633
  O          -5.75201783055310      2.41908154685374      0.87049014300160
  C          -4.28434865447251      1.23578123252847     -0.62490445588867
  C          -3.49032708466222      2.53553552088186     -0.75706351017495
  N          -2.16672240217880      2.26962489384993     -1.31320379886461
  C          -1.52479544832671      3.50207573224427     -1.73713677918259
  C          -1.32230269414758      1.45380001422069     -0.43873534727978
  C          -0.10375292004128      0.88428911185701     -1.22942517911811
  C           0.70981026743343     -0.02050135098077     -0.35404683089922
  C           2.01631129461271     -0.41348976902698     -0.31489121964559
  N           2.20639357825510     -1.34955811264243      0.73532046699977
  C           3.38042829724058     -2.04858597177728      1.05772574527092
  O           3.33616001012164     -3.04969520468359      1.74622577212410
  C           4.68569099988630     -1.51710667145755      0.54226565203434
  C           5.67008716141821     -2.45154657139650      0.17641963450788
  C           6.93210905616181     -2.02931279420132     -0.23368495885037
  C           7.27001204950393     -0.66330722533325     -0.26302028625267
  C           6.29151800597328      0.26027449451796      0.13499908852573
  C           5.01582873993383     -0.15309204539374      0.52807317532064
  C           8.65288398755463     -0.19593419578580     -0.69781815814544
  C           8.95055136334400     -0.56727422700929     -2.16156575981583
  C           9.75475649866022     -0.71069459774539      0.24571376264113
  C           0.95991670069568     -1.55954994769637      1.36042586370649
  C           0.53257181534186     -2.36919252073180      2.42007673744223
  C          -0.82065056747725     -2.27469726924080      2.77647139174409
  C          -1.73025416266063     -1.42147871041121      2.12103026405316
  C          -1.30906252475328     -0.61835968437522      1.05105492668687
  C          -2.11594208551161      0.33328250424631      0.25332977066453
  C          -3.45235361119627      0.23046297853213      0.13472021039829
  C           0.04467344675767     -0.71815096201565      0.70494317663216
  H          -7.11493722983708     -1.07088424890345     -3.13771207181447
  H          -8.16245239359004      0.20378667745520     -2.46574804715296
  H          -6.50300097205117      0.59688062566597     -2.97423386922846
  H          -5.59178788754968     -0.90624759768008     -1.15088414563893
  H          -7.21997853672045     -1.32511828017445     -0.66105967140696
  H          -8.03670338537812      1.93469850143105      0.68185237127945
  H          -8.74582461925501      0.50813699616031     -0.10607734540662
  H          -7.86608068955451     -0.93865330709555      1.81075790589660
  H          -8.97215273901950      0.33562591963131      2.38215402321176
  H          -7.21111545645637      0.54022891582053      2.57264105617409
  H          -4.47226601258512      0.85374396174401     -1.64337145560702
  H          -3.45015178068337      3.03317882460446      0.23371881465715
  H          -4.01734245527736      3.22480004994945     -1.43534084103194
  H          -0.59417864222981      3.30260676889644     -2.28732669836336
  H          -2.19361922164835      4.05030611195400     -2.41862798889561
  H          -1.27788588901542      4.18139921554593     -0.88823073340273
  H          -0.90117215629583      2.08048680819015      0.38674671342714
  H           0.50950856891240      1.70450647070167     -1.62899213712690
  H          -0.50576043214271      0.33073374837635     -2.09715286244377
  H           2.84732463397376     -0.15262744500904     -0.96357196653702
  H           5.42813385239141     -3.51559100409716      0.22320687043440
  H           7.67133898691095     -2.77946557536944     -0.52763165766615
  H           6.53348853987775      1.32721890039973      0.14435621482006
  H           4.28639523181937      0.59303360145243      0.85065205592884
  H           8.65116649184958      0.90618999857185     -0.63122373787819
  H           9.92605833885547     -0.16002047529015     -2.47445660643857
  H           8.18107178764741     -0.16909396987499     -2.84184705543469
  H           8.98729160122729     -1.66055258340695     -2.30039814083885
  H           9.82865072998028     -1.81055706826040      0.21753590538525
  H          10.73726238485959     -0.30465489404401     -0.04659965413285
  H           9.56036600324075     -0.41541216433690      1.28889410809140
  H           1.21527018636247     -3.04251286977736      2.93464712916305
  H          -1.18382935528446     -2.88731371692954      3.60621722452812
  H          -2.76448146403099     -1.37671457584320      2.47138778655104
  H          -3.96776518383747     -0.60360258313345      0.62188881686593
