73
Coordinates from ORCA-job conformer_004 E -1516.261797147358
  C           8.86251242001012      0.44622879036289      1.88092442357785
  C           8.45888201635724      0.47999758833600      0.40608739475874
  N           7.18554109825818     -0.19712010408785      0.13792071971486
  C           7.24705962518960     -1.60440013318006     -0.25336338469190
  C           7.46916707856274     -1.82490644519901     -1.75255571937925
  C           6.03692742810322      0.55025083600378      0.25064096973102
  O           6.07357941650000      1.73037023449802      0.57373851077208
  C           4.68551817590291     -0.13455219264593     -0.00791568280170
  C           4.13084512808966     -0.73363790094161      1.29304718635950
  N           2.79162392990817     -1.26778823396667      1.08608391429047
  C           2.37398168842319     -2.08301341191584      2.21370973127641
  C           1.79928715977190     -0.25712388463176      0.70824527537560
  C           0.54681220840008     -0.93384112151993      0.07047460434152
  C          -0.43496665220358      0.11090200026700     -0.36877007369601
  C          -1.78700681167961      0.15546953146755     -0.54896482831680
  N          -2.16547558803490      1.43380189556176     -1.03797251794105
  C          -3.44619619370857      1.85677890739025     -1.42413603066528
  O          -3.59100686693495      2.84813053648290     -2.11328373925955
  C          -4.62760092282338      1.05850454750899     -0.95513242065416
  C          -5.71195222406121      0.92158549907009     -1.83271911200916
  C          -6.87348584697900      0.25617026365237     -1.43737470758173
  C          -7.01367286062247     -0.26990276745977     -0.14132150368363
  C          -5.93073020474406     -0.09399812594340      0.74159458468046
  C          -4.75814458857783      0.55009279090413      0.34833564370827
  C          -8.28321622825436     -1.00358652299221      0.33231325191978
  C          -9.34952983001433     -1.09727529871874     -0.77477833908044
  C          -7.91092982284996     -2.44078129424078      0.76793431024630
  C          -8.89770576366808     -0.24463413215816      1.53249373995585
  C          -0.99439018574500      2.20688361555817     -1.18492309714162
  C          -0.74344908196454      3.50905796123616     -1.63494702632383
  C           0.59234258487728      3.93611089695361     -1.60783908802308
  C           1.65190860171123      3.12215219241975     -1.15990657191858
  C           1.40545540970843      1.81416277575157     -0.71910577640711
  C           2.38395609091736      0.82286222742309     -0.21517791386593
  C           3.68802461831624      0.85928354467724     -0.53784589077723
  C           0.06797952219086      1.39792888300613     -0.74694047852928
  H           8.11535554398769      0.97565856276870      2.49125432676968
  H           9.83616749616515      0.94271461818299      2.02539593883274
  H           8.95245519872462     -0.58679518960105      2.25682639357642
  H           8.35959276899961      1.52365919553596      0.07642244819588
  H           9.23407017493571      0.00445230154290     -0.21718278341037
  H           6.33355380442342     -2.12116618854031      0.07141266806523
  H           8.06717511562685     -2.07296337430925      0.31698160494951
  H           6.63203129840673     -1.41843624883389     -2.34229666809570
  H           7.55562662329462     -2.90067564303593     -1.97723959222741
  H           8.39265995013737     -1.33291968652929     -2.09755574860494
  H           4.79433312204198     -0.95270686898078     -0.74002190875870
  H           4.15918341056869      0.05269622505607      2.08120577696710
  H           4.77311142050912     -1.55829645741066      1.64297264604508
  H           2.24338329202323     -1.49696398907725      3.15296003474016
  H           1.42411400190655     -2.59596669053298      2.00638462153197
  H           3.12780300835841     -2.86231393909189      2.40810835259691
  H           1.43834188520930      0.28374993982376      1.61777517033694
  H           0.08713839474423     -1.63840779392541      0.77866757521040
  H           0.89707476015523     -1.52830912970988     -0.79256259971891
  H          -2.53874912494796     -0.61708344299144     -0.41744434000635
  H          -5.63573859194631      1.34763989922819     -2.83556146103459
  H          -7.68306619160040      0.15919333133315     -2.16106631248608
  H          -5.99925640614183     -0.46248922938413      1.76793683114502
  H          -3.95098735930879      0.67970147173211      1.07270154049715
  H          -9.68525039358907     -0.10266644081542     -1.10854503513946
  H          -8.98211654371359     -1.64870253386334     -1.65471658272766
  H         -10.23358050280631     -1.63325670640130     -0.39454581860788
  H          -7.18080552024470     -2.44604229783892      1.59195464391231
  H          -7.47544890295934     -3.00822580162564     -0.07042000634891
  H          -8.80789391714969     -2.98053948564451      1.11429438073653
  H          -9.17556590646439      0.78353116546146      1.24999159684625
  H          -9.80729498867253     -0.75893147074317      1.88451238926907
  H          -8.20110629286557     -0.18148050950686      2.38274304471339
  H          -1.54392971827639      4.15245480311536     -1.99456103988694
  H           0.82023065163481      4.95118151178394     -1.94473585960919
  H           2.66604950835304      3.52876016127383     -1.13939284693338
  H           4.05939440215397      1.63978198262119     -1.20637685903166
