73
Coordinates from ORCA-job conformer_002 E -1767.605199644220
  C          -8.47637853656672     -0.73846035411003      1.60284897635094
  C          -8.35371323258636     -0.58055642512970      0.08661472074234
  N          -6.97243056398601     -0.68521871643588     -0.39649488637592
  C          -6.52110841952390     -1.99872169627133     -0.85457870655909
  C          -6.88512019217578     -2.30952701330700     -2.30950603767911
  C          -6.21991138867201      0.46548341015319     -0.41079310058689
  O          -6.68467275565334      1.53354500174358     -0.03556673487735
  C          -4.76132967699949      0.36855592075200     -0.89334287517870
  C          -4.26175832495023      1.72607763542884     -1.38806263333215
  N          -2.84385723723270      1.65354284101071     -1.72897996263158
  C          -2.43201562886208      2.82257786313783     -2.48730348512723
  C          -1.98090865593591      1.38190906912922     -0.57780102569767
  C          -0.56586943488937      0.92760312397700     -1.05257463683093
  C           0.28531411207304      0.53727770506772      0.11803247425918
  C           1.62674853547899      0.49477951491751      0.36595535968612
  N           1.85968140266271     -0.00808697771716      1.67330869102627
  C           3.09060632818562     -0.14322734112623      2.33210375174127
  O           3.13694681617529     -0.29999433533797      3.53673028837967
  C           4.34532480745205     -0.09898745421400      1.50730887189653
  C           5.46182985531823      0.54984430609978      2.05703059680549
  C           6.67918046664693      0.56337210691328      1.37454677698216
  C           6.84012524647746     -0.09438761039233      0.13898306379308
  C           5.71807586784346     -0.77053844167183     -0.38039667872895
  C           4.48882884283894     -0.77259218736098      0.28240656288720
  Si          8.49183425588810     -0.09653450913454     -0.80980305881194
  C           8.22385630965460      0.70395154652497     -2.50453522986612
  C           9.06672844172583     -1.88510658396838     -1.03941544180526
  C           9.78933957222566      0.87745777489240      0.16011076877092
  C           0.60693483163407     -0.25993345187872      2.27091549489291
  C           0.21200286911844     -0.74926419071572      3.52220825536375
  C          -1.16741829297749     -0.88567932181351      3.73663136115646
  C          -2.13284021007135     -0.54626185880327      2.76816932915934
  C          -1.74102593701262     -0.05833613322654      1.51313042283832
  C          -2.60660849413885      0.36254510032070      0.38810093826209
  C          -3.85540774388309     -0.10818979868366      0.21689877808425
  C          -0.36134755534207      0.06770731835347      1.30653700413101
  H          -8.08102781580826     -1.70933101793711      1.94575985939227
  H          -9.53277377189528     -0.67703790163441      1.91239988592063
  H          -7.92380671338378      0.06406269473876      2.11435341292934
  H          -8.74174997782037      0.40321589769584     -0.21283764349519
  H          -8.95256270117035     -1.34790822201024     -0.43073247163063
  H          -5.43626441990231     -2.09199429010668     -0.71069428699854
  H          -6.97017769806642     -2.75615906280120     -0.18949710762655
  H          -6.40190118895179     -1.60046684138758     -3.00074281824718
  H          -6.55882774884250     -3.32710086282753     -2.58027800320922
  H          -7.97302270802160     -2.24944553273544     -2.47370603387691
  H          -4.69864141658158     -0.33833646433790     -1.73956699940366
  H          -4.48141701388498      2.49256336019522     -0.61651334856113
  H          -4.81951854914948      2.02009742095454     -2.29091111537243
  H          -2.47427953330167      3.76572570927148     -1.89436905954984
  H          -1.40707966892439      2.71357140504304     -2.86957154005945
  H          -3.09260559887564      2.94733847571989     -3.35929247704918
  H          -1.83162216249454      2.31339901126837      0.02320768061083
  H          -0.71020411807237      0.06879039896021     -1.73282215286987
  H          -0.08757733165111      1.72405811821492     -1.64051515655509
  H           2.46471023456479      0.80368155316028     -0.25175473241454
  H           5.36190154569044      1.04119448793969      3.02751515955471
  H           7.52246181962869      1.09451475700673      1.82500182005115
  H           5.79728006040815     -1.31751963045764     -1.32579491389122
  H           3.64684893155570     -1.32280162491295     -0.14404566581146
  H           7.89310668398424      1.75096308482123     -2.40253778940988
  H           7.45818550861466      0.16720325197719     -3.08910356372515
  H           9.15676104945129      0.70001436889720     -3.09365963942015
  H           8.31995298818752     -2.48237146652959     -1.58855390197989
  H          10.01035321776104     -1.92467145517715     -1.60984794500487
  H           9.23788214391295     -2.37671336853187     -0.06740987449769
  H           9.97836019414018      0.43408738285271      1.15192661904773
  H          10.74693833542955      0.88389066709919     -0.38737757181966
  H           9.48657288209676      1.92734357045492      0.30878051750911
  H           0.93904162331640     -0.99409997329711      4.29387854487165
  H          -1.50858855335342     -1.25279562762365      4.70850553615442
  H          -3.19292457815687     -0.64015767967081      3.01702434434235
  H          -4.24342023037768     -0.85343043142296      0.91883948260481
